p cnf 11 28
11 -10 6 0
-11 -9 -8 0
-11 -9 7 0
-11 -8 -5 0
11 -8 4 0
11 -8 3 0
-11 -8 2 0
-11 -7 6 0
11 4 -1 0
10 8 6 0
10 -8 -4 0
10 7 3 0
-10 7 -1 0
10 6 1 0
-10 5 -4 0
10 -5 -2 0
10 -5 -1 0
9 8 -2 0
-9 8 2 0
9 -7 2 0
9 6 5 0
8 7 3 0
-8 4 3 0
-7 -6 2 0
-7 4 2 0
-6 3 -2 0
5 -4 2 0
5 2 -1 0
